dates = {'2021-10-05','2021-10-06','2021-10-07','2021-10-08','2021-10-09','2021-10-10','2021-10-11','2021-10-12','2021-10-13','2021-10-14','2021-10-15','2021-10-16','2021-10-17','2021-10-18','2021-10-19','2021-10-20','2021-10-21','2021-10-22','2021-10-23','2021-10-24','2021-10-25','2021-10-26','2021-10-27','2021-10-28','2021-10-29','2021-10-30','2021-10-31','2021-11-01','2021-11-02','2021-11-03'};

daysOfWeek = [Tuesday,Wednesday,Thursday,Friday,Saturday,Sunday,Monday,Tuesday,Wednesday,Thursday,Friday,Saturday,Sunday,Monday,Tuesday,Wednesday,Thursday,Friday,Saturday,Sunday,Monday,Tuesday,Wednesday,Thursday,Friday,Saturday,Sunday,Monday,Tuesday,Wednesday];

% For this week, how many people will be here.
numPeople = [26,26,26,26,26,30,30,30,30,26,29,29,29,29,32,32,46,35,35,41,42,42,44,35
,35,35,35,41,38,52];

% Physical workers need 50 to 100 % more nutrients per day.
numPhysicalWorkers = [14.5,14.5,14.5,14.5,14.5,14.5,14.5,14.5,14.5,14.5,16.5,16.5,16.5,16.5
,18.5,18.5,20.5,20.5,20.5,20.5,20.5,20.5,20.5,20.5,20.5,20.5,20.5,20.5
,20.5,20.5];

% Males need +25% more nutrients per day.
numMen = [23,23,23,23,23,27,27,27,27,27,25,25,25,25,27,27,41,41,30,36,42,36,43,37
,30,30,30,36,36,46];

% Num people who do not eat categories. contains = {none, meat, milk, gluten, egg, nut, seed, sugars}
numRefusals = [| 0,1,2,0,0,0,2,0 | 0,1,2,0,0,0,2,0 | 0,1,2,0,0,0,2,0 | 0,1,2,0,0,0,2,0 | 0,1,2,0,0,0,2,0 | 0,6,5,5,2,1,0,0 | 0,6,5,5,2,1,0,0 | 0,6,5,5,2,1,0,0 | 0,6,5,5,2,1,0,0 | 0,0,0,0,0,0,3,1 | 0,2,0,0,1,1,0,0 | 0,2,0,0,1,1,0,0 | 0,2,0,0,1,1,0,0 | 0,2,0,0,1,1,0,0 | 0,0,0,0,2,1,0,5 | 0,0,0,0,2,1,0,5 | 0,0,0,0,7,0,4,0 | 0,0,2,0,0,4,0,2 | 0,0,2,0,0,4,0,2 | 0,2,3,0,0,4,0,3 | 0,4,0,7,0,0,5,0 | 0,4,0,7,0,0,5,0 | 0,0,0,4,0,0,0,4 | 0,3,0,0,2,0,3,0 | 0,3,0,0,2,0,3,0 | 0,3,0,0,2,0,3,0 | 0,3,0,0,2,0,3,0 | 0,2,0,9,6,6,0,4 | 0,0,2,2,0,2,2,0 | 0,0,0,8,2,0,0,0 |];

